c Sudoku solution
p cnf 729 0
119 0
146 0
151 0
248 0
294 0
315 0
332 0
458 0
477 0
527 0
533 0
562 0
252 0
596 0
671 0
692 0
731 0
759 0
783 0
493 0
813 0
842 0
857 0
874 0
895 0
925 0
963 0
555 0
745 0
198 0
328 0
797 0
829 0
626 0
466 0
956 0
861 0
944 0
768 0
618 0
391 0
981 0
999 0
182 0
387 0
376 0
647 0
653 0
664 0
343 0
354 0
369 0
772 0
978 0
886 0
724 0
912 0
716 0
838 0
937 0
422 0
236 0
217 0
221 0
123 0
134 0
175 0
273 0
289 0
167 0
265 0
579 0
588 0
484 0
685 0
411 0
514 0
449 0
541 0
435 0
639 0
